1 3 100 221252.75
1 3 200 224223.36
1 3 300 222509.05
2 3 100 284722.59
2 3 200 285929.21
2 3 300 286462.29
3 3 100 260372.65
3 3 200 259843.51
3 3 300 264378.77
4 3 100 245265.89
4 3 200 249653.62
4 3 300 259961.12
5 3 100 234912.04
5 3 200 234298.82
5 3 300 240435.98
